148
0 135 89 61 76 6 41 133 60 83 
98 81 15 114 91 45 24 138 70 22 
106 21 108 141 121 113 107 102 40 5 
48 74 147 112 2 139 12 118 90 78 
47 57 132 23 39 11 17 16 144 75 
29 67 34 143 116 46 86 52 4 93 
65 134 110 140 37 63 130 88 97 96 
119 31 101 18 137 53 104 129 105 58 
43 94 128 3 99 146 35 28 122 66 
33 64 73 100 55 68 14 69 50 127 
84 25 27 145 44 72 124 85 131 111 
9 32 115 80 103 71 1 54 82 120 
142 62 36 79 38 49 136 42 8 13 
123 125 59 126 51 92 10 77 30 7 
56 26 109 117 19 20 95 87 
